\ENCODING=ISO-8859-1
\Problem name: 

Minimize
 obj: x1 + x2 + x3 + x4 + x5 + x6 + x7 + x8 + x9 + x10 + x11 + x12 + 2 x13
      + 2 x14 + 2 x15 + 2 x16 + 3 x17 + 3 x18 + 3 x19 + 3 x20 + 4 x21 + 4 x22
      + 4 x23 + 4 x24 + 4 x25 + 4 x26 + 4 x27 + 4 x28 + 4 x29 + 5 x30 + 5 x31
      + 5 x32 + 5 x33 + 5 x34 + 5 x35 + 5 x36 + 5 x37 + 5 x38 + 5 x39 + 6 x40
      + 6 x41 + 6 x42 + 6 x43 + 6 x44 + 6 x45 + 6 x46 + 6 x47 + 6 x48 + 6 x49
      + 6 x50 + 6 x51 + 6 x52 + 7 x53 + 7 x54 + 7 x55 + 7 x56 + 7 x57 + 7 x58
      + 8 x59 + 8 x60 + 8 x61 + 8 x62 + 8 x63 + 8 x64 + 8 x65 + 8 x66 + 8 x67
      + 8 x68 + 9 x69 + 9 x70 + 9 x71 + 9 x72 + 9 x73 + 9 x74 + 9 x75 + 9 x76
      + 9 x77 + 10 x78 + 10 x79 + 10 x80 + 10 x81 + 10 x82 + 10 x83 + 10 x84
      + 11 x85 + 11 x86 + 11 x87 + 11 x88 + 11 x89 + 11 x90 + 12 x91 + 12 x92
      + 12 x93 + 12 x94 + 12 x95 + 12 x96 + 12 x97 + 12 x98 + 13 x99 + 13 x100
      + 13 x101 + 13 x102 + 14 x103 + 14 x104 + 14 x105 + 14 x106 + 14 x107
      + 14 x108 + 14 x109 + 14 x110 + 14 x111 + 15 x112 + 15 x113 + 15 x114
      + 15 x115 + 15 x116 + 15 x117 + 16 x118 + 16 x119 + 16 x120 + 16 x121
      + 16 x122 + 16 x123 + 16 x124 + 16 x125 + 16 x126 + 16 x127 + 17 x128
      + 17 x129 + 17 x130 + 17 x131 + 17 x132 + 17 x133 + 17 x134 + 17 x135
      + 18 x136 + 18 x137 + 18 x138 + 18 x139 + 18 x140 + 18 x141 + 18 x142
      + 19 x143 + 19 x144 + 19 x145 + 19 x146 + 19 x147 + 20 x148 + 20 x149
      + 21 x150 + 21 x151 + 21 x152 + 21 x153 + 22 x154 + 22 x155 + 22 x156
      + 22 x157 + 22 x158 + 22 x159 + 22 x160 + 23 x161 + 24 x162 + 24 x163
      + 24 x164 + 24 x165 + 24 x166 + 24 x167 + 25 x168 + 25 x169 + 25 x170
      + 25 x171 + 26 x172 + 26 x173 + 26 x174 + 27 x175 + 27 x176 + 27 x177
      + 27 x178 + 27 x179 + 28 x180 + 29 x181 + 29 x182 + 29 x183 + 29 x184
      + 30 x185 + 30 x186 + 30 x187 + 32 x188 + 33 x189 + 34 x190 + 36 x191
      + 37 x192 + 37 x193 + 45 x194 + 47 x195 + 48 x196 + 49 x197 + 49 x198
      + 71 x199
Subject To
 c1:   x45 + x50 + x120 >= 1
 c2:   x117 + x166 >= 1
 c3:   x17 + x24 >= 1
 c4:   x6 + x128 + x181 >= 1
 c5:   x43 + x51 + x79 + x120 + x125 + x130 + x190 >= 1
 c6:   x71 + x74 + x89 + x153 + x155 + x166 + x194 >= 1
 c7:   x69 + x132 + x168 + x169 + x188 + x199 >= 1
 c8:   x29 + x37 + x63 + x75 + x143 + x149 + x150 + x153 >= 1
 c9:   x78 + x98 + x146 + x174 >= 1
 c10:  x24 + x60 + x62 + x68 + x103 + x116 >= 1
 c11:  x1 + x30 + x70 + x128 + x186 >= 1
 c12:  x6 + x28 + x53 + x119 + x161 >= 1
 c13:  x24 + x64 + x122 + x127 + x150 + x183 >= 1
 c14:  x23 + x30 + x35 + x51 + x105 + x118 + x181 >= 1
 c15:  x44 + x64 + x81 + x131 + x132 + x136 + x138 + x189 >= 1
 c16:  x85 + x101 + x107 + x152 + x183 >= 1
 c17:  x19 + x72 + x100 + x104 >= 1
 c18:  x10 + x82 + x146 + x152 + x185 + x187 >= 1
 c19:  x103 + x171 + x177 >= 1
 c20:  x40 + x90 + x133 + x149 >= 1
 c21:  x49 + x63 + x93 + x129 + x146 + x173 >= 1
 c22:  x17 + x95 + x106 >= 1
 c23:  x42 + x78 + x99 + x127 + x150 + x186 >= 1
 c24:  x2 + x30 + x91 + x120 >= 1
 c25:  x74 + x79 + x89 + x111 + x162 + x186 >= 1
 c26:  x37 + x58 + x64 + x95 + x130 + x135 + x175 >= 1
 c27:  x99 + x160 + x162 + x174 >= 1
 c28:  x33 + x34 + x84 + x128 + x135 + x148 >= 1
 c29:  x14 + x88 + x123 + x133 >= 1
 c30:  x23 + x41 + x143 >= 1
 c31:  x17 + x46 + x65 + x103 >= 1
 c32:  x27 + x92 + x192 >= 1
 c33:  x85 + x91 + x92 + x93 + x186 + x199 >= 1
 c34:  x2 + x20 + x131 + x155 >= 1
 c35:  x13 + x49 + x57 + x91 + x100 >= 1
 c36:  x13 + x32 + x53 + x87 + x150 + x159 + x165 + x190 + x197 >= 1
 c37:  x45 + x66 + x84 + x136 >= 1
 c38:  x41 + x45 + x48 + x61 + x180 >= 1
 c39:  x70 + x103 + x193 + x199 >= 1
 c40:  x33 + x107 + x193 >= 1
 c41:  x61 + x64 + x104 + x113 + x148 + x150 >= 1
 c42:  x60 + x69 + x110 + x133 + x173 >= 1
 c43:  x21 + x56 + x96 + x137 >= 1
 c44:  x22 + x24 + x44 + x112 + x114 >= 1
 c45:  x39 + x90 + x142 + x197 >= 1
 c46:  x76 + x85 + x101 + x122 + x123 + x148 + x151 + x189 >= 1
 c47:  x61 + x92 + x112 >= 1
 c48:  x66 + x195 >= 1
 c49:  x85 + x90 + x96 + x149 + x158 + x161 >= 1
 c50:  x98 + x174 + x191 >= 1
 c51:  x13 + x92 + x150 + x167 + x194 >= 1
 c52:  x41 + x44 + x92 + x127 >= 1
 c53:  x54 + x119 + x173 + x192 >= 1
 c54:  x8 + x40 + x70 + x128 >= 1
 c55:  x7 + x108 + x152 >= 1
 c56:  x40 + x41 + x134 + x161 + x168 + x179 >= 1
 c57:  x102 + x172 + x176 + x188 >= 1
 c58:  x22 + x67 + x79 + x81 + x159 + x166 >= 1
 c59:  x17 + x32 + x40 + x55 + x88 + x97 + x113 + x151 + x157 >= 1
 c60:  x22 + x123 + x195 >= 1
 c61:  x110 + x190 + x197 + x198 + x199 >= 1
 c62:  x40 + x67 + x114 + x140 + x154 + x155 + x165 + x192 >= 1
 c63:  x3 + x6 + x99 + x181 >= 1
 c64:  x57 + x148 + x156 + x170 + x187 >= 1
 c65:  x13 + x26 + x132 + x164 >= 1
 c66:  x140 + x145 + x185 + x198 >= 1
 c67:  x70 + x121 + x157 + x181 >= 1
 c68:  x9 + x101 + x107 >= 1
 c69:  x1 + x37 + x67 >= 1
 c70:  x15 + x24 + x58 + x101 + x119 + x169 >= 1
 c71:  x26 + x150 >= 1
 c72:  x52 + x68 + x112 + x154 + x164 >= 1
 c73:  x45 + x59 + x69 + x106 + x118 + x131 >= 1
 c74:  x10 + x148 + x155 >= 1
 c75:  x62 + x141 + x180 + x186 + x192 >= 1
 c76:  x73 + x113 + x123 + x157 + x192 >= 1
 c77:  x76 + x112 + x121 + x139 + x151 + x157 + x170 + x178 + x192 >= 1
 c78:  x184 + x196 >= 1
 c79:  x77 + x110 + x112 + x160 >= 1
 c80:  x72 + x106 + x123 + x125 + x145 + x159 >= 1
 c81:  x43 + x111 + x175 + x177 >= 1
 c82:  x55 + x87 >= 1
 c83:  x18 + x71 + x105 + x196 >= 1
 c84:  x4 + x55 + x82 + x113 >= 1
 c85:  x103 + x194 >= 1
 c86:  x34 + x108 + x182 + x185 >= 1
 c87:  x5 + x122 + x172 >= 1
 c88:  x60 + x63 + x78 + x142 + x158 + x196 >= 1
 c89:  x34 + x78 + x158 >= 1
 c90:  x61 + x85 + x86 + x106 + x116 + x196 + x198 >= 1
 c91:  x143 + x199 >= 1
 c92:  x73 + x79 + x127 + x136 + x141 >= 1
 c93:  x69 + x91 + x153 >= 1
 c94:  x31 + x89 + x97 + x179 + x191 >= 1
 c95:  x42 + x53 + x129 + x132 + x151 + x178 + x184 >= 1
 c96:  x53 + x152 >= 1
 c97:  x40 + x71 + x99 + x113 + x125 + x171 + x177 + x188 >= 1
 c98:  x21 + x25 + x88 + x101 + x118 + x143 + x150 + x193 + x196 >= 1
 c99:  x3 >= 1
 c100: x2 + x17 + x36 + x68 + x133 + x148 >= 1
 c101: x99 + x156 + x169 + x195 >= 1
 c102: x115 + x119 + x134 + x142 >= 1
 c103: x58 + x83 + x94 + x147 >= 1
 c104: x78 + x82 + x93 + x121 + x139 + x194 >= 1
 c105: x138 + x155 + x159 + x176 + x181 >= 1
 c106: x50 + x100 + x158 + x168 + x197 >= 1
 c107: x46 + x59 + x140 + x195 >= 1
 c108: x30 + x113 >= 1
 c109: x35 + x85 + x165 >= 1
 c110: x86 + x130 + x131 + x155 >= 1
 c111: x38 + x71 + x115 + x116 + x162 >= 1
 c112: x7 + x13 >= 1
 c113: x25 + x43 + x97 + x151 >= 1
 c114: x9 + x19 + x28 + x42 + x94 + x157 >= 1
 c115: x22 + x32 + x63 + x91 >= 1
 c116: x5 + x87 + x154 + x166 >= 1
 c117: x86 + x93 + x119 + x133 + x149 + x183 + x190 + x191 >= 1
 c118: x53 + x72 + x138 + x181 >= 1
 c119: x96 + x119 + x144 + x180 >= 1
 c120: x18 + x72 + x81 + x112 + x162 + x171 + x191 >= 1
 c121: x16 + x31 + x172 >= 1
 c122: x9 + x41 + x134 + x148 + x181 + x186 >= 1
 c123: x7 + x26 + x32 >= 1
 c124: x53 + x70 + x117 + x144 + x154 + x164 + x168 + x174 + x181 >= 1
 c125: x16 + x178 >= 1
 c126: x6 + x145 + x154 + x172 >= 1
 c127: x11 + x115 >= 1
 c128: x32 + x56 + x57 + x67 + x170 >= 1
 c129: x48 + x94 + x115 + x125 + x163 + x168 + x173 + x185 >= 1
 c130: x152 + x162 + x167 + x178 + x182 + x189 + x197 + x198 >= 1
 c131: x3 + x11 + x100 + x130 + x188 >= 1
 c132: x23 + x109 + x174 + x175 >= 1
 c133: x13 + x42 + x79 + x129 + x154 >= 1
 c134: x86 + x88 + x90 + x128 + x164 + x173 + x176 + x179 >= 1
 c135: x35 + x73 + x78 >= 1
 c136: x20 + x56 + x74 + x114 >= 1
 c137: x15 + x95 + x116 + x189 >= 1
 c138: x3 + x25 + x26 + x47 + x54 + x60 + x122 + x129 + x172 >= 1
 c139: x5 + x24 + x27 + x118 + x128 + x162 >= 1
 c140: x23 + x124 + x128 + x130 + x137 + x163 + x165 + x177 >= 1
 c141: x134 + x135 + x169 + x174 + x182 + x193 >= 1
 c142: x13 + x15 + x16 + x17 + x18 + x88 + x141 >= 1
 c143: x21 + x72 + x97 + x126 + x164 >= 1
 c144: x2 + x18 + x48 + x59 + x60 + x70 + x154 >= 1
 c145: x94 + x125 + x139 + x165 + x172 + x195 >= 1
 c146: x5 + x21 + x65 + x66 + x96 + x182 >= 1
 c147: x1 + x38 + x109 + x129 + x132 + x173 >= 1
 c148: x31 + x59 + x95 + x161 + x162 >= 1
 c149: x108 + x140 + x154 + x175 >= 1
 c150: x22 + x31 + x131 + x180 >= 1
 c151: x25 + x35 + x73 + x118 + x126 + x137 + x162 + x185 >= 1
 c152: x29 + x91 >= 1
 c153: x22 + x60 + x74 + x109 + x138 + x187 >= 1
 c154: x30 + x31 + x42 + x144 >= 1
 c155: x1 + x5 + x8 + x14 + x33 + x144 >= 1
 c156: x3 + x21 + x30 + x51 + x86 + x124 >= 1
 c157: x102 + x137 + x147 + x179 + x187 + x194 >= 1
 c158: x21 + x46 + x80 + x100 + x126 >= 1
 c159: x36 + x118 + x138 + x156 >= 1
 c160: x41 + x59 + x86 + x187 >= 1
 c161: x62 + x69 + x87 + x126 + x157 >= 1
 c162: x4 + x12 + x40 + x53 + x92 + x189 >= 1
 c163: x47 + x109 + x172 >= 1
 c164: x4 + x22 + x59 + x113 >= 1
 c165: x3 + x22 + x43 + x46 + x54 + x103 + x126 >= 1
 c166: x80 + x104 + x122 + x146 + x160 + x161 + x183 >= 1
 c167: x23 + x69 + x105 + x120 + x143 + x172 >= 1
 c168: x6 + x21 + x119 + x121 + x158 + x176 >= 1
 c169: x50 + x83 + x114 + x118 + x163 + x168 + x197 >= 1
 c170: x4 + x27 + x151 + x175 >= 1
 c171: x49 + x65 + x104 + x124 + x136 + x170 >= 1
 c172: x28 + x75 + x78 + x139 + x197 >= 1
 c173: x34 + x44 + x87 + x161 + x192 >= 1
 c174: x32 + x59 + x62 + x87 + x143 >= 1
 c175: x23 + x143 + x161 + x163 + x180 >= 1
 c176: x30 + x80 + x145 + x161 + x166 + x193 >= 1
 c177: x1 + x23 + x36 + x55 + x71 + x89 + x103 + x169 + x199 >= 1
 c178: x4 + x8 + x21 + x91 + x94 + x95 + x112 + x156 >= 1
 c179: x2 + x62 + x93 + x121 + x156 + x172 >= 1
 c180: x25 + x43 + x63 + x137 >= 1
 c181: x73 + x136 + x167 + x199 >= 1
 c182: x21 + x31 + x124 >= 1
 c183: x69 + x123 + x155 + x163 + x171 + x172 + x190 >= 1
 c184: x36 + x85 + x182 >= 1
 c185: x7 + x151 >= 1
 c186: x61 + x120 >= 1
 c187: x1 + x14 + x85 + x112 + x136 + x168 >= 1
 c188: x44 + x75 + x80 + x111 + x176 + x180 + x183 >= 1
 c189: x61 + x114 + x191 + x195 >= 1
 c190: x25 + x107 + x156 >= 1
 c191: x33 + x66 + x77 >= 1
 c192: x18 + x54 + x185 >= 1
 c193: x14 + x40 + x195 + x197 + x199 >= 1
 c194: x47 + x83 + x188 >= 1
 c195: x30 + x75 + x118 + x136 >= 1
 c196: x1 + x2 + x30 + x163 >= 1
 c197: x33 + x91 + x122 + x129 + x167 + x170 + x190 >= 1
 c198: x64 + x105 + x108 + x120 + x124 >= 1
 c199: x65 + x121 >= 1
 c200: x42 >= 1
Bounds
 0 <= x1 <= 1
 0 <= x2 <= 1
 0 <= x3 <= 1
 0 <= x4 <= 1
 0 <= x5 <= 1
 0 <= x6 <= 1
 0 <= x7 <= 1
 0 <= x8 <= 1
 0 <= x9 <= 1
 0 <= x10 <= 1
 0 <= x11 <= 1
 0 <= x12 <= 1
 0 <= x13 <= 1
 0 <= x14 <= 1
 0 <= x15 <= 1
 0 <= x16 <= 1
 0 <= x17 <= 1
 0 <= x18 <= 1
 0 <= x19 <= 1
 0 <= x20 <= 1
 0 <= x21 <= 1
 0 <= x22 <= 1
 0 <= x23 <= 1
 0 <= x24 <= 1
 0 <= x25 <= 1
 0 <= x26 <= 1
 0 <= x27 <= 1
 0 <= x28 <= 1
 0 <= x29 <= 1
 0 <= x30 <= 1
 0 <= x31 <= 1
 0 <= x32 <= 1
 0 <= x33 <= 1
 0 <= x34 <= 1
 0 <= x35 <= 1
 0 <= x36 <= 1
 0 <= x37 <= 1
 0 <= x38 <= 1
 0 <= x39 <= 1
 0 <= x40 <= 1
 0 <= x41 <= 1
 0 <= x42 <= 1
 0 <= x43 <= 1
 0 <= x44 <= 1
 0 <= x45 <= 1
 0 <= x46 <= 1
 0 <= x47 <= 1
 0 <= x48 <= 1
 0 <= x49 <= 1
 0 <= x50 <= 1
 0 <= x51 <= 1
 0 <= x52 <= 1
 0 <= x53 <= 1
 0 <= x54 <= 1
 0 <= x55 <= 1
 0 <= x56 <= 1
 0 <= x57 <= 1
 0 <= x58 <= 1
 0 <= x59 <= 1
 0 <= x60 <= 1
 0 <= x61 <= 1
 0 <= x62 <= 1
 0 <= x63 <= 1
 0 <= x64 <= 1
 0 <= x65 <= 1
 0 <= x66 <= 1
 0 <= x67 <= 1
 0 <= x68 <= 1
 0 <= x69 <= 1
 0 <= x70 <= 1
 0 <= x71 <= 1
 0 <= x72 <= 1
 0 <= x73 <= 1
 0 <= x74 <= 1
 0 <= x75 <= 1
 0 <= x76 <= 1
 0 <= x77 <= 1
 0 <= x78 <= 1
 0 <= x79 <= 1
 0 <= x80 <= 1
 0 <= x81 <= 1
 0 <= x82 <= 1
 0 <= x83 <= 1
 0 <= x84 <= 1
 0 <= x85 <= 1
 0 <= x86 <= 1
 0 <= x87 <= 1
 0 <= x88 <= 1
 0 <= x89 <= 1
 0 <= x90 <= 1
 0 <= x91 <= 1
 0 <= x92 <= 1
 0 <= x93 <= 1
 0 <= x94 <= 1
 0 <= x95 <= 1
 0 <= x96 <= 1
 0 <= x97 <= 1
 0 <= x98 <= 1
 0 <= x99 <= 1
 0 <= x100 <= 1
 0 <= x101 <= 1
 0 <= x102 <= 1
 0 <= x103 <= 1
 0 <= x104 <= 1
 0 <= x105 <= 1
 0 <= x106 <= 1
 0 <= x107 <= 1
 0 <= x108 <= 1
 0 <= x109 <= 1
 0 <= x110 <= 1
 0 <= x111 <= 1
 0 <= x112 <= 1
 0 <= x113 <= 1
 0 <= x114 <= 1
 0 <= x115 <= 1
 0 <= x116 <= 1
 0 <= x117 <= 1
 0 <= x118 <= 1
 0 <= x119 <= 1
 0 <= x120 <= 1
 0 <= x121 <= 1
 0 <= x122 <= 1
 0 <= x123 <= 1
 0 <= x124 <= 1
 0 <= x125 <= 1
 0 <= x126 <= 1
 0 <= x127 <= 1
 0 <= x128 <= 1
 0 <= x129 <= 1
 0 <= x130 <= 1
 0 <= x131 <= 1
 0 <= x132 <= 1
 0 <= x133 <= 1
 0 <= x134 <= 1
 0 <= x135 <= 1
 0 <= x136 <= 1
 0 <= x137 <= 1
 0 <= x138 <= 1
 0 <= x139 <= 1
 0 <= x140 <= 1
 0 <= x141 <= 1
 0 <= x142 <= 1
 0 <= x143 <= 1
 0 <= x144 <= 1
 0 <= x145 <= 1
 0 <= x146 <= 1
 0 <= x147 <= 1
 0 <= x148 <= 1
 0 <= x149 <= 1
 0 <= x150 <= 1
 0 <= x151 <= 1
 0 <= x152 <= 1
 0 <= x153 <= 1
 0 <= x154 <= 1
 0 <= x155 <= 1
 0 <= x156 <= 1
 0 <= x157 <= 1
 0 <= x158 <= 1
 0 <= x159 <= 1
 0 <= x160 <= 1
 0 <= x161 <= 1
 0 <= x162 <= 1
 0 <= x163 <= 1
 0 <= x164 <= 1
 0 <= x165 <= 1
 0 <= x166 <= 1
 0 <= x167 <= 1
 0 <= x168 <= 1
 0 <= x169 <= 1
 0 <= x170 <= 1
 0 <= x171 <= 1
 0 <= x172 <= 1
 0 <= x173 <= 1
 0 <= x174 <= 1
 0 <= x175 <= 1
 0 <= x176 <= 1
 0 <= x177 <= 1
 0 <= x178 <= 1
 0 <= x179 <= 1
 0 <= x180 <= 1
 0 <= x181 <= 1
 0 <= x182 <= 1
 0 <= x183 <= 1
 0 <= x184 <= 1
 0 <= x185 <= 1
 0 <= x186 <= 1
 0 <= x187 <= 1
 0 <= x188 <= 1
 0 <= x189 <= 1
 0 <= x190 <= 1
 0 <= x191 <= 1
 0 <= x192 <= 1
 0 <= x193 <= 1
 0 <= x194 <= 1
 0 <= x195 <= 1
 0 <= x196 <= 1
 0 <= x197 <= 1
 0 <= x198 <= 1
 0 <= x199 <= 1
Binaries
 x1  x2  x3  x4  x5  x6  x7  x8  x9  x10  x11  x12  x13  x14  x15  x16  x17 
 x18  x19  x20  x21  x22  x23  x24  x25  x26  x27  x28  x29  x30  x31  x32 
 x33  x34  x35  x36  x37  x38  x39  x40  x41  x42  x43  x44  x45  x46  x47 
 x48  x49  x50  x51  x52  x53  x54  x55  x56  x57  x58  x59  x60  x61  x62 
 x63  x64  x65  x66  x67  x68  x69  x70  x71  x72  x73  x74  x75  x76  x77 
 x78  x79  x80  x81  x82  x83  x84  x85  x86  x87  x88  x89  x90  x91  x92 
 x93  x94  x95  x96  x97  x98  x99  x100  x101  x102  x103  x104  x105  x106 
 x107  x108  x109  x110  x111  x112  x113  x114  x115  x116  x117  x118  x119 
 x120  x121  x122  x123  x124  x125  x126  x127  x128  x129  x130  x131  x132 
 x133  x134  x135  x136  x137  x138  x139  x140  x141  x142  x143  x144  x145 
 x146  x147  x148  x149  x150  x151  x152  x153  x154  x155  x156  x157  x158 
 x159  x160  x161  x162  x163  x164  x165  x166  x167  x168  x169  x170  x171 
 x172  x173  x174  x175  x176  x177  x178  x179  x180  x181  x182  x183  x184 
 x185  x186  x187  x188  x189  x190  x191  x192  x193  x194  x195  x196  x197 
 x198  x199 
End
